; input_dword_4
(declare-fun e () (_ BitVec 32))
(let ((?x2001 (concat ((_ extract 7 3) (bvadd (_ bv4 32) e)) (bvnot ((_ extract 2 2) (bvadd (_ bv4 32) e))) ((_ extract 1 0) e) ((_ extract 31 8) (bvadd (_ bv4 32) e)))))
(let ((?x2045 (bvadd (_ bv3921822786 32) (bvnot (bvadd (_ bv4294967292 32) ?x2001)))))
(let ((?x2281 (concat ((_ extract 27 26) ?x2045) (bvnot ((_ extract 25 23) ?x2045)) ((_ extract 22 20) ?x2045) (bvnot ((_ extract 19 18) ?x2045)) ((_ extract 17 13) ?x2045) (bvnot ((_ extract 12 5) ?x2045)) ((_ extract 4 4) ?x2045) (bvnot ((_ extract 3 3) ?x2045)) ((_ extract 2 2) ?x2045) (bvnot ((_ extract 1 1) ?x2045)) ((_ extract 8 8) (bvadd (_ bv4 32) e)) (bvnot ((_ extract 31 31) ?x2045)) ((_ extract 30 28) ?x2045))))
(let ((?x2269 (concat ((_ extract 31 3) (bvadd (_ bv4 32) ?x2281)) (bvnot ((_ extract 2 2) (bvadd (_ bv4 32) ?x2281))) ((_ extract 29 28) ?x2045))))
(let ((?x2245 (bvadd (_ bv4294967292 32) ?x2269)))
(let ((?x2243 (concat (bvnot ((_ extract 28 28) ?x2045)) (bvnot ((_ extract 31 3) ?x2245)) ((_ extract 2 2) ?x2245) (bvnot ((_ extract 29 29) ?x2045)))))
(let ((?x2246 (bvadd (_ bv4 19) (concat (bvnot ((_ extract 19 3) ?x2245)) ((_ extract 2 2) ?x2245) (bvnot ((_ extract 29 29) ?x2045))))))
(let ((?x2305 (bvadd (_ bv1 1) ((_ extract 9 9) (bvadd (_ bv121107100 32) (concat ?x2246 ((_ extract 31 19) (bvadd (_ bv4 32) ?x2243))))))))
(let ((?x2306 (bvnot ?x2305)))
(let ((?x2256 (concat (bvadd (_ bv156 9) ((_ extract 27 19) (bvadd (_ bv4 32) ?x2243))) ((_ extract 31 9) (bvadd (_ bv121107100 32) (concat ?x2246 ((_ extract 31 19) (bvadd (_ bv4 32) ?x2243))))))))
(let ((?x2180 (bvadd (_ bv2036738909 32) ?x2256)))
(let ((?x2238 ((_ extract 1 1) ?x2180)))
(let ((?x2297 (bvnot ((_ extract 3 2) ?x2180))))
(let ((?x2302 ((_ extract 8 4) ?x2180)))
(let ((?x2295 (bvnot ((_ extract 10 9) ?x2180))))
(let ((?x2202 ((_ extract 11 11) ?x2180)))
(let ((?x2293 (bvnot ((_ extract 12 12) ?x2180))))
(let ((?x2176 (concat ((_ extract 26 25) ?x2180) (bvnot ((_ extract 24 23) ?x2180)) ((_ extract 22 22) ?x2180) (bvnot ((_ extract 21 17) ?x2180)) ((_ extract 16 13) ?x2180) ?x2293 ?x2202 ?x2295 ?x2302 ?x2297 ?x2238 ?x2306)))
(let ((?x2303 (bvadd (_ bv134217724 27) ?x2176)))
(let ((?x2194 (concat (bvnot ((_ extract 31 31) ?x2180)) ((_ extract 30 30) ?x2180) (bvnot ((_ extract 29 29) ?x2180)) ((_ extract 28 28) ?x2180) (bvnot ((_ extract 27 27) ?x2180)) ((_ extract 26 25) ?x2180) (bvnot ((_ extract 24 23) ?x2180)) ((_ extract 22 22) ?x2180) (bvnot ((_ extract 21 17) ?x2180)) ((_ extract 16 13) ?x2180) ?x2293 ?x2202 ?x2295 ?x2302 ?x2297 ?x2238 ?x2306)))
(let ((?x2315 (bvadd (_ bv5957 13) (concat ((_ extract 31 27) (bvadd (_ bv4294967292 32) ?x2194)) ((_ extract 26 19) ?x2303)))))
(let ((?x2310 (bvadd (_ bv16380 14) (concat ((_ extract 13 13) ?x2180) ?x2293 ?x2202 ?x2295 ?x2302 ?x2297 ?x2238 ?x2306))))
(let ((?x2301 (concat ((_ extract 18 14) ?x2303) ?x2310 ((_ extract 31 27) (bvadd (_ bv4294967292 32) ?x2194)) ((_ extract 26 19) ?x2303))))
(let ((?x2319 (concat ((_ extract 7 4) ?x2315) (bvadd (_ bv5 4) ((_ extract 22 19) ?x2303)) ((_ extract 31 13) (bvadd (_ bv3690608453 32) ?x2301)) ((_ extract 12 8) ?x2315))))
(let ((?x2072 (bvadd (_ bv4 32) (bvnot (bvadd (_ bv2171031335 32) ?x2319)))))
(let ((?x2339 (concat (bvnot ((_ extract 31 3) ?x2072)) ((_ extract 2 2) ?x2072) (bvadd (_ bv3 2) ((_ extract 9 8) ?x2315)))))
(let ((?x2330 ((_ extract 31 27) (bvadd (_ bv4294967288 32) ?x2339))))
(let ((?x2236 (concat (bvnot ((_ extract 26 3) ?x2072)) ((_ extract 2 2) ?x2072) (bvadd (_ bv3 2) ((_ extract 9 8) ?x2315)))))
(let ((?x2200 (bvadd (_ bv3059648131 32) (concat (bvadd (_ bv134217720 27) ?x2236) ?x2330))))
(let ((?x2369 (concat (bvnot ((_ extract 31 31) ?x2200)) ((_ extract 30 30) ?x2200) (bvnot ((_ extract 29 22) ?x2200)) ((_ extract 21 21) ?x2200) (bvnot ((_ extract 20 19) ?x2200)) ((_ extract 18 17) ?x2200) (bvnot ((_ extract 16 15) ?x2200)) ((_ extract 14 13) ?x2200) (bvnot ((_ extract 12 12) ?x2200)) ((_ extract 11 9) ?x2200) (bvnot ((_ extract 8 7) ?x2200)) ((_ extract 6 6) ?x2200) (bvnot ((_ extract 5 5) ?x2200)) (bvadd (_ bv3 5) ?x2330))))
(let ((?x2340 (bvadd (_ bv1942396743 32) (concat (bvnot (bvadd (_ bv25 5) ?x2330)) (bvnot ((_ extract 31 5) (bvadd (_ bv116244534 32) ?x2369)))))))
(let ((?x2409 ((_ extract 25 24) ?x2340)))
(let ((?x2411 (concat (bvnot ((_ extract 23 21) ?x2340)) (bvnot ((_ extract 20 19) ?x2340)) (bvnot ((_ extract 18 16) ?x2340)) (bvnot ((_ extract 15 8) ?x2340)) (bvnot ((_ extract 7 3) ?x2340)) ((_ extract 2 2) ?x2340) (bvnot (bvadd (_ bv3 2) (bvnot ((_ extract 6 5) (bvadd (_ bv116244534 32) ?x2369))))) (bvnot ((_ extract 31 27) ?x2340)) ((_ extract 26 26) ?x2340) (bvnot ?x2409))))
(let ((?x2385 (bvadd (_ bv3255570124 32) ?x2411)))
(let ((?x2417 (concat (bvnot ((_ extract 11 6) ?x2385)) ((_ extract 5 5) ?x2385) (bvnot ((_ extract 4 3) ?x2385)) ((_ extract 2 2) ?x2385) ?x2409)))
(let ((?x2418 (bvadd (_ bv4 12) ?x2417)))
(let ((?x2429 ((_ extract 7 7) ?x2418)))
(let ((?x2398 (concat (bvnot ((_ extract 31 6) ?x2385)) ((_ extract 5 5) ?x2385) (bvnot ((_ extract 4 3) ?x2385)) ((_ extract 2 2) ?x2385) ?x2409)))
(let ((?x2388 (bvadd (_ bv4 32) ?x2398)))
(let ((?x2402 (concat ((_ extract 6 6) ?x2418) (bvnot ((_ extract 5 3) ?x2418)) ((_ extract 2 2) ?x2418) (bvnot ?x2409) ((_ extract 31 29) ?x2388) (bvnot ((_ extract 28 27) ?x2388)) ((_ extract 26 26) ?x2388) (bvnot ((_ extract 25 25) ?x2388)) ((_ extract 24 22) ?x2388) (bvnot ((_ extract 21 21) ?x2388)) ((_ extract 20 19) ?x2388) (bvnot ((_ extract 18 17) ?x2388)) ((_ extract 16 16) ?x2388) (bvnot ((_ extract 15 15) ?x2388)) ((_ extract 14 14) ?x2388) (bvnot ((_ extract 13 12) ?x2388)) ((_ extract 11 10) ?x2418) (bvnot ((_ extract 9 8) ?x2418)) ?x2429)))
(let ((?x2419 (bvadd (_ bv4294967292 32) ?x2402)))
(let ((?x2377 (concat ((_ extract 16 16) ?x2419) (bvnot ((_ extract 15 14) ?x2419)) ((_ extract 13 13) ?x2419) (bvnot ((_ extract 12 10) ?x2419)) ((_ extract 9 6) ?x2419) (bvnot ((_ extract 5 5) ?x2419)) ((_ extract 4 2) ?x2419) (bvnot ((_ extract 1 1) ?x2419)) ?x2429 ((_ extract 31 31) ?x2419) (bvnot ((_ extract 30 30) ?x2419)) ((_ extract 29 28) ?x2419) (bvnot ((_ extract 27 26) ?x2419)) ((_ extract 25 24) ?x2419) (bvnot ((_ extract 23 22) ?x2419)) ((_ extract 21 17) ?x2419))))
(let ((?x2469 (bvadd (_ bv3562860298 32) ?x2377)))
(let ((?x2538 ((_ extract 22 22) ?x2469)))
(let ((?x2397 (concat ((_ extract 4 2) ?x2419) (bvnot ((_ extract 1 1) ?x2419)) ?x2429 ((_ extract 31 31) ?x2419) (bvnot ((_ extract 30 30) ?x2419)) ((_ extract 29 28) ?x2419) (bvnot ((_ extract 27 26) ?x2419)) ((_ extract 25 24) ?x2419) (bvnot ((_ extract 23 22) ?x2419)) ((_ extract 21 17) ?x2419))))
(let ((?x2393 (bvadd (_ bv847626 20) ?x2397)))
(let ((?x2539 (concat (bvnot ((_ extract 21 21) ?x2469)) ((_ extract 20 20) ?x2469) ((_ extract 19 17) ?x2393) (bvnot ((_ extract 16 16) ?x2393)) ((_ extract 15 14) ?x2393) (bvnot ((_ extract 13 13) ?x2393)) ((_ extract 12 12) ?x2393) (bvnot ((_ extract 11 10) ?x2393)) ((_ extract 9 8) ?x2393) (bvnot ((_ extract 7 7) ?x2393)) ((_ extract 6 3) ?x2393) (bvnot ((_ extract 2 1) ?x2393)) ((_ extract 17 17) ?x2419) ((_ extract 31 29) ?x2469) (bvnot ((_ extract 28 26) ?x2469)) ((_ extract 25 25) ?x2469) (bvnot ((_ extract 24 23) ?x2469)) ?x2538)))
(let ((?x2396 (bvadd (_ bv1053454115 32) ?x2539)))
(let ((?x2372 (concat ((_ extract 31 30) ?x2396) (bvnot ((_ extract 29 26) ?x2396)) ((_ extract 25 25) ?x2396) (bvnot ((_ extract 24 24) ?x2396)) ((_ extract 23 23) ?x2396) (bvnot ((_ extract 22 21) ?x2396)) ((_ extract 20 20) ?x2396) (bvnot ((_ extract 19 19) ?x2396)) ((_ extract 18 16) ?x2396) (bvnot ((_ extract 15 15) ?x2396)) ((_ extract 14 14) ?x2396) (bvnot ((_ extract 13 13) ?x2396)) ((_ extract 12 10) ?x2396) (bvnot ((_ extract 9 8) ?x2396)) ((_ extract 7 7) ?x2396) (bvnot ((_ extract 6 6) ?x2396)) ((_ extract 5 5) ?x2396) (bvnot ((_ extract 4 2) ?x2396)) (bvadd (_ bv3 2) (concat (bvnot ((_ extract 23 23) ?x2469)) ?x2538)))))
(let ((?x2461 (bvadd (_ bv3493170197 32) ?x2372)))
(concat (bvnot ((_ extract 3 3) ?x2461)) ((_ extract 2 1) ?x2461) (bvnot ?x2538) ((_ extract 31 31) ?x2461) (bvnot ((_ extract 30 25) ?x2461)) ((_ extract 24 24) ?x2461) (bvnot ((_ extract 23 18) ?x2461)) ((_ extract 17 14) ?x2461) (bvnot ((_ extract 13 13) ?x2461)) ((_ extract 12 12) ?x2461) (bvnot ((_ extract 11 7) ?x2461)) (bvnot ((_ extract 6 6) ?x2461)) (bvnot ((_ extract 5 4) ?x2461)))))))))))))))))))))))))))))))))))))))))))))))))))))